(set-info :smt-lib-version 2.6)
(set-logic LRA)
(set-info :source |
   Monniaux, David; Quantifier Elimination by Lazy Model Enumeration, CAV 2010
|)
(set-info :category "random")
; ./Mjollnir_examples/B6/formula_112.m
(set-info :status unknown)
(assert
 (forall ((|v17:0| Real) )(forall ((|v16:1| Real) )(forall ((|v15:2| Real) )(forall ((|v14:3| Real) )(forall ((|v13:4| Real) )(forall ((|v12:5| Real) )(exists ((|v11:6| Real) )(exists ((|v10:7| Real) )(exists ((|v9:8| Real) )(exists ((|v8:9| Real) )(exists ((|v7:10| Real) )(exists ((|v6:11| Real) )(forall ((|v5:12| Real) )(forall ((|v4:13| Real) )(forall ((|v3:14| Real) )(forall ((|v2:15| Real) )(forall ((|v1:16| Real) )(forall ((|v0:17| Real) )(let ((?x223 5))
(let ((?x194 18))
(let ((?x253 (* ?x194 |v4:13|)))
(let ((?x128 (- 16)))
(let ((?x446 (* ?x128 |v7:10|)))
(let ((?x90 (- 7)))
(let ((?x908 (* ?x90 |v4:13|)))
(let ((?x1321 (+ (+ (* (- 1) |v12:5|) (* (- 6) |v5:12|)) (* 3 |v13:4|))))
(let (($x1327 (<= (+ (+ (+ (+ ?x1321 ?x908) ?x446) (* 8 |v4:13|)) ?x253) ?x223)))
(let ((?x161 (- 18)))
(let ((?x19 (- 1)))
(let ((?x854 (* ?x19 |v3:14|)))
(let ((?x358 (- 20)))
(let ((?x368 (* ?x358 |v15:2|)))
(let ((?x1031 (* ?x223 |v6:11|)))
(let ((?x261 20))
(let ((?x630 (* ?x261 |v15:2|)))
(let ((?x1314 (+ (+ (+ (+ (* 0 |v6:11|) (* ?x194 |v13:4|)) ?x630) ?x1031) (* 2 |v3:14|))))
(let ((?x231 13))
(let ((?x232 (* ?x231 |v5:12|)))
(let ((?x251 15))
(let ((?x252 (* ?x251 |v17:0|)))
(let ((?x50 (- 2)))
(let ((?x444 (* ?x50 |v14:3|)))
(let ((?x1303 (+ (+ (+ (* 0 |v6:11|) (* (- 15) |v8:9|)) ?x444) ?x252)))
(let ((?x1308 (+ (+ (+ ?x1303 (* 17 |v14:3|)) (* (- 4) |v2:15|)) ?x232)))
(let ((?x133 10))
(let ((?x95 12))
(let ((?x317 (* ?x95 |v4:13|)))
(let ((?x57 16))
(let ((?x538 (* ?x57 |v8:9|)))
(let ((?x1131 (* ?x90 |v3:14|)))
(let ((?x1293 (+ (+ (+ (* (- 3) |v4:13|) (* (- 17) |v10:7|)) ?x1131) ?x538)))
(let ((?x107 6))
(let ((?x85 19))
(let ((?x998 (* ?x85 |v9:8|)))
(let ((?x1281 (+ (+ (* (- 17) |v4:13|) (* (- 5) |v5:12|)) (* (- 17) |v2:15|))))
(let ((?x1286 (+ (+ (+ ?x1281 (* 7 |v9:8|)) ?x998) (* 9 |v2:15|))))
(let (($x1299 (and (<= (+ ?x1286 (* ?x85 |v16:1|)) ?x107) (<= (+ (+ (+ ?x1293 (* (- 8) |v8:9|)) |v5:12|) ?x317) ?x133))))
(let ((?x1139 (* ?x19 |v12:5|)))
(let ((?x987 (* ?x133 |v14:3|)))
(let ((?x398 (- 14)))
(let ((?x1007 (* ?x398 |v7:10|)))
(let ((?x46 4))
(let ((?x47 (* ?x46 |v1:16|)))
(let ((?x205 14))
(let ((?x312 (* ?x205 |v2:15|)))
(let ((?x1274 (+ (+ (+ (+ (* ?x223 |v14:3|) (* (- 15) |v1:16|)) ?x312) ?x47) ?x1007)))
(let ((?x36 17))
(let ((?x756 (* ?x358 |v17:0|)))
(let ((?x31 (- 15)))
(let ((?x594 (* ?x31 |v6:11|)))
(let ((?x305 (- 13)))
(let ((?x834 (* ?x305 |v8:9|)))
(let ((?x1265 (+ (+ (+ (+ (* ?x161 |v15:2|) (* ?x261 |v1:16|)) (* ?x205 |v12:5|)) ?x834) ?x594)))
(let (($x1278 (or (<= (+ (+ ?x1265 ?x756) (* ?x50 |v2:15|)) ?x36) (<= (+ (+ ?x1274 ?x987) ?x1139) ?x19))))
(let (($x1329 (and (and $x1278 $x1299) (and (and (<= ?x1308 ?x223) (<= (+ (+ ?x1314 ?x368) ?x854) ?x161)) $x1327))))
(let ((?x115 (- 8)))
(let ((?x14 (- 10)))
(let ((?x23 (* ?x14 |v15:2|)))
(let ((?x1066 (* ?x358 |v4:13|)))
(let ((?x154 (- 17)))
(let ((?x173 (* ?x154 |v11:6|)))
(let ((?x1251 (+ (+ (* ?x31 |v17:0|) (* 8 |v17:0|)) (* (- 5) |v10:7|))))
(let ((?x488 (* ?x261 |v16:1|)))
(let ((?x724 (* ?x161 |v11:6|)))
(let ((?x1244 (+ (+ (+ (+ (* ?x305 |v12:5|) ?x312) (* ?x107 |v15:2|)) (* ?x161 |v12:5|)) ?x724)))
(let (($x1258 (or (<= (+ (+ ?x1244 ?x488) (* ?x251 |v10:7|)) ?x223) (<= (+ (+ (+ (+ ?x1251 ?x173) (* ?x205 |v7:10|)) ?x1066) ?x23) ?x115))))
(let ((?x81 7))
(let ((?x145 (* ?x81 |v15:2|)))
(let ((?x39 (- 5)))
(let ((?x165 (* ?x39 |v7:10|)))
(let ((?x425 0))
(let ((?x966 (* ?x425 |v6:11|)))
(let ((?x1233 (+ (+ (+ (* (- 19) |v0:17|) (* ?x305 |v10:7|)) (* ?x90 |v5:12|)) (* ?x251 |v6:11|))))
(let ((?x335 (* ?x14 |v3:14|)))
(let ((?x407 (* ?x85 |v4:13|)))
(let ((?x1223 (+ (+ (+ (* ?x128 |v9:8|) (* (- 12) |v13:4|)) (* ?x261 |v1:16|)) |v12:5|)))
(let (($x1238 (and (<= (+ (+ (+ ?x1223 (* ?x251 |v3:14|)) ?x407) ?x335) ?x19) (<= (+ (+ (+ ?x1233 ?x966) ?x165) ?x145) ?x128))))
(let ((?x100 (- 6)))
(let ((?x635 (* ?x107 |v2:15|)))
(let ((?x61 11))
(let ((?x769 (* ?x61 |v3:14|)))
(let ((?x298 (* ?x128 |v11:6|)))
(let ((?x1212 (+ (+ (+ (* (- 4) |v8:9|) (* ?x31 |v16:1|)) (* ?x128 |v5:12|)) ?x298)))
(let ((?x481 (* ?x19 |v7:10|)))
(let ((?x1201 (+ (+ (+ (* (- 19) |v13:4|) (* ?x133 |v4:13|)) ?x1131) (* ?x128 |v2:15|))))
(let (($x1218 (and (<= (+ (+ (+ ?x1201 ?x481) (* ?x100 |v16:1|)) (* ?x85 |v14:3|)) ?x81) (<= (+ (+ (+ ?x1212 ?x769) ?x635) (* ?x425 |v14:3|)) ?x100))))
(let ((?x76 (- 19)))
(let ((?x852 (* ?x76 |v7:10|)))
(let ((?x1191 (+ (+ (+ (+ (* ?x50 |v6:11|) (* ?x61 |v11:6|)) |v15:2|) (* ?x154 |v6:11|)) (* (- 4) |v4:13|))))
(let ((?x690 (* ?x425 |v13:4|)))
(let ((?x69 (- 12)))
(let ((?x785 (* ?x69 |v17:0|)))
(let ((?x27 (- 3)))
(let ((?x578 (* ?x27 |v16:1|)))
(let ((?x1179 (+ (+ (+ (* (- 4) |v11:6|) (* ?x425 |v15:2|)) (* ?x61 |v17:0|)) ?x578)))
(let (($x1196 (and (<= (+ (+ (+ ?x1179 (* ?x90 |v12:5|)) ?x785) ?x690) ?x161) (<= (+ (+ ?x1191 (* ?x50 |v17:0|)) ?x852) ?x81))))
(let ((?x147 (- 4)))
(let ((?x121 (- 11)))
(let ((?x773 (* ?x121 |v12:5|)))
(let ((?x190 9))
(let ((?x491 (* ?x190 |v8:9|)))
(let ((?x197 3))
(let ((?x432 (* ?x197 |v17:0|)))
(let ((?x1167 (+ (+ (+ (+ (+ (* ?x398 |v16:1|) (* ?x14 |v14:3|)) |v17:0|) ?x432) ?x491) ?x773)))
(let ((?x185 (* ?x69 |v0:17|)))
(let ((?x1155 (+ (+ (+ (* ?x50 |v16:1|) (* ?x85 |v8:9|)) (* ?x36 |v7:10|)) (* ?x100 |v11:6|))))
(let (($x1171 (and (<= (+ (+ (+ ?x1155 ?x185) (* ?x197 |v16:1|)) (* ?x194 |v1:16|)) ?x50) (<= (+ ?x1167 (* ?x121 |v17:0|)) ?x147))))
(let ((?x776 (* ?x205 |v0:17|)))
(let ((?x1144 (+ (+ (+ (* ?x107 |v12:5|) ?x1139) (* (- 9) |v6:11|)) (* ?x115 |v0:17|))))
(let ((?x766 (* ?x305 |v0:17|)))
(let ((?x1133 (+ (+ (+ (+ (* ?x223 |v1:16|) ?x966) (* 2 |v16:1|)) ?x1131) ?x766)))
(let (($x1150 (and (<= (+ (+ ?x1133 (* ?x197 |v7:10|)) (* ?x100 |v0:17|)) ?x305) (<= (+ (+ (+ ?x1144 ?x432) ?x776) (* ?x39 |v16:1|)) ?x251))))
(let ((?x300 (* ?x251 |v13:4|)))
(let ((?x555 (* ?x154 |v12:5|)))
(let ((?x1121 (+ (+ (+ (+ (* ?x190 |v12:5|) (* ?x76 |v13:4|)) (* ?x90 |v16:1|)) ?x555) (* ?x261 |v7:10|))))
(let ((?x1062 (* ?x231 |v11:6|)))
(let ((?x416 (* ?x133 |v11:6|)))
(let ((?x1108 (+ (+ (+ (* 2 |v17:0|) (* ?x39 |v15:2|)) (* ?x133 |v13:4|)) ?x416)))
(let (($x1114 (<= (+ (+ (+ ?x1108 ?x1062) (* 8 |v5:12|)) (* ?x36 |v5:12|)) ?x223)))
(let ((?x565 (* ?x115 |v15:2|)))
(let ((?x790 (* ?x197 |v6:11|)))
(let ((?x546 (* ?x69 |v7:10|)))
(let ((?x1099 (+ (+ (+ (+ (* ?x115 |v1:16|) (* ?x14 |v6:11|)) (* ?x128 |v17:0|)) ?x546) ?x790)))
(let ((?x111 (- 9)))
(let ((?x112 (* ?x111 |v5:12|)))
(let ((?x175 (* ?x90 |v6:11|)))
(let ((?x1090 (+ (+ (+ (* 2 |v9:8|) (* ?x251 |v9:8|)) (* ?x147 |v0:17|)) (* ?x95 |v12:5|))))
(let (($x1104 (or (<= (+ (+ (+ ?x1090 ?x173) ?x175) ?x112) ?x100) (<= (+ (+ ?x1099 (* ?x46 |v7:10|)) ?x565) ?x358))))
(let (($x1173 (and (or $x1104 (or $x1114 (<= (+ (+ ?x1121 (* ?x231 |v15:2|)) ?x300) ?x90))) (or $x1150 $x1171))))
(let ((?x1080 (* ?x425 |v15:2|)))
(let ((?x588 (* ?x154 |v17:0|)))
(let ((?x1078 (+ (+ (+ (* ?x425 |v2:15|) (* ?x194 |v3:14|)) (* ?x27 |v12:5|)) (* ?x69 |v16:1|))))
(let ((?x191 (* ?x190 |v11:6|)))
(let ((?x10 8))
(let ((?x181 (* ?x10 |v12:5|)))
(let ((?x1067 (+ (+ (+ (+ ?x1062 (* ?x46 |v0:17|)) (* ?x50 |v6:11|)) (* ?x31 |v12:5|)) ?x1066)))
(let ((?x553 (* ?x31 |v1:16|)))
(let ((?x910 (* ?x50 |v12:5|)))
(let ((?x1057 (+ (+ (+ (+ (* ?x161 |v16:1|) (* ?x100 |v5:12|)) (* ?x128 |v17:0|)) ?x910) (* ?x398 |v10:7|))))
(let (($x1071 (and (<= (+ (+ ?x1057 (* ?x10 |v16:1|)) ?x553) ?x107) (<= (+ (+ ?x1067 ?x181) ?x191) ?x69))))
(let ((?x932 (* ?x231 |v7:10|)))
(let ((?x904 (* ?x161 |v3:14|)))
(let ((?x1045 (+ (+ (+ (* ?x223 |v11:6|) (* ?x197 |v5:12|)) (* ?x61 |v7:10|)) (* 2 |v12:5|))))
(let ((?x418 (* ?x147 |v14:3|)))
(let ((?x414 (* ?x19 |v13:4|)))
(let ((?x1036 (+ (+ (+ (+ (* ?x14 |v5:12|) (* ?x115 |v14:3|)) ?x1031) (* ?x154 |v13:4|)) (* ?x121 |v15:2|))))
(let (($x1051 (or (<= (+ (+ ?x1036 ?x414) ?x418) ?x231) (<= (+ (+ (+ ?x1045 (* ?x10 |v9:8|)) ?x904) ?x932) ?x128))))
(let (($x1085 (or (or $x1051 $x1071) (<= (+ (+ (+ ?x1078 ?x588) ?x1080) (* ?x115 |v13:4|)) ?x128))))
(let ((?x118 2))
(let ((?x342 (* ?x128 |v15:2|)))
(let ((?x297 (* ?x39 |v15:2|)))
(let ((?x584 (* ?x231 |v4:13|)))
(let ((?x1020 (+ (+ (+ (+ (* ?x107 |v15:2|) (* ?x154 |v3:14|)) (* ?x358 |v10:7|)) ?x584) ?x297)))
(let ((?x328 (* ?x111 |v12:5|)))
(let ((?x82 (* ?x81 |v11:6|)))
(let ((?x1010 (+ (+ (+ (+ (* ?x128 |v14:3|) (* ?x36 |v1:16|)) ?x1007) (* ?x46 |v0:17|)) ?x82)))
(let (($x1024 (or (<= (+ (+ ?x1010 ?x328) (* ?x85 |v12:5|)) ?x107) (<= (+ (+ ?x1020 ?x342) ?x191) ?x118))))
(let ((?x255 (* ?x76 |v11:6|)))
(let ((?x997 (+ (+ (+ (* ?x100 |v9:8|) (* ?x14 |v1:16|)) (* ?x69 |v1:16|)) (* ?x69 |v2:15|))))
(let ((?x264 (* ?x90 |v17:0|)))
(let ((?x224 (* ?x223 |v10:7|)))
(let ((?x986 (+ (+ (+ (+ (* ?x205 |v5:12|) (* ?x107 |v17:0|)) (* ?x111 |v15:2|)) ?x224) (* ?x147 |v3:14|))))
(let (($x1004 (and (<= (+ (+ ?x986 ?x987) ?x264) ?x231) (<= (+ (+ (+ ?x997 ?x998) (* ?x61 |v14:3|)) ?x255) ?x39))))
(let ((?x973 (* ?x14 |v14:3|)))
(let ((?x955 (* ?x358 |v6:11|)))
(let ((?x972 (+ (+ (+ (+ ?x966 (* ?x251 |v0:17|)) (* ?x14 |v8:9|)) (* ?x85 |v0:17|)) ?x955)))
(let ((?x238 (* ?x128 |v1:16|)))
(let ((?x960 (+ (+ (+ (+ (* ?x31 |v4:13|) (* ?x85 |v7:10|)) ?x955) (* ?x251 |v8:9|)) (* ?x61 |v5:12|))))
(let ((?x473 (* ?x205 |v4:13|)))
(let ((?x946 (+ (+ (+ (* ?x69 |v13:4|) (* ?x261 |v8:9|)) (* ?x27 |v4:13|)) (* ?x111 |v0:17|))))
(let (($x965 (and (<= (+ (+ (+ ?x946 ?x473) (* ?x111 |v2:15|)) (* ?x358 |v12:5|)) ?x261) (<= (+ (+ ?x960 (* ?x118 |v2:15|)) ?x238) ?x161))))
(let (($x1026 (and (or $x965 (<= (+ (+ ?x972 ?x973) (* ?x76 |v16:1|)) ?x100)) (and $x1004 $x1024))))
(let ((?x929 (+ (+ (+ (* ?x76 |v1:16|) (* ?x81 |v14:3|)) (* ?x61 |v1:16|)) (* ?x231 |v0:17|))))
(let ((?x641 (* ?x115 |v12:5|)))
(let ((?x277 (* ?x118 |v7:10|)))
(let ((?x343 (* ?x46 |v9:8|)))
(let ((?x920 (+ (+ (+ (+ (* ?x95 |v1:16|) (* ?x95 |v17:0|)) ?x565) (* ?x190 |v15:2|)) ?x343)))
(let (($x937 (and (<= (+ (+ ?x920 ?x277) ?x641) ?x115) (<= (+ (+ (+ ?x929 (* ?x194 |v10:7|)) ?x932) (* ?x57 |v1:16|)) ?x57))))
(let ((?x907 (+ (+ (+ (+ (* ?x305 |v3:14|) (* ?x19 |v6:11|)) (* ?x50 |v5:12|)) ?x904) (* ?x154 |v8:9|))))
(let ((?x137 (* ?x69 |v3:14|)))
(let ((?x892 (+ (+ (+ (* ?x161 |v5:12|) (* ?x121 |v4:13|)) (* ?x10 |v15:2|)) (* ?x190 |v7:10|))))
(let (($x913 (or (<= (+ (+ (+ ?x892 (* ?x100 |v1:16|)) (* ?x90 |v15:2|)) ?x137) ?x100) (<= (+ (+ ?x907 ?x908) ?x910) ?x194))))
(let ((?x101 (* ?x100 |v14:3|)))
(let ((?x884 (* ?x161 |v15:2|)))
(let ((?x349 (* ?x194 |v6:11|)))
(let ((?x883 (+ (+ (+ (+ (* ?x147 |v13:4|) (* ?x425 |v9:8|)) (* ?x81 |v0:17|)) ?x349) (* ?x261 |v3:14|))))
(let ((?x544 (* ?x27 |v7:10|)))
(let ((?x867 (+ (+ (+ (+ (* ?x121 |v6:11|) (* ?x76 |v1:16|)) ?x335) (* ?x305 |v14:3|)) ?x544)))
(let ((?x493 1))
(let ((?x54 (* ?x46 |v8:9|)))
(let ((?x857 (* ?x118 |v16:1|)))
(let ((?x859 (+ (+ (+ (+ (+ (+ (* ?x231 |v10:7|) ?x185) ?x852) ?x854) |v13:4|) ?x857) ?x54)))
(let ((?x826 (* ?x358 |v11:6|)))
(let ((?x845 (+ (+ (+ (+ (* ?x154 |v7:10|) ?x578) (* ?x115 |v6:11|)) (* ?x39 |v9:8|)) (* ?x69 |v6:11|))))
(let (($x873 (or (and (<= (+ (+ ?x845 (* ?x161 |v14:3|)) ?x826) ?x493) (<= ?x859 ?x493)) (<= (+ (+ ?x867 (* ?x90 |v1:16|)) (* ?x31 |v5:12|)) ?x46))))
(let ((?x831 (+ (+ (+ (+ (* ?x128 |v17:0|) ?x826) (* ?x10 |v10:7|)) (* ?x27 |v0:17|)) (* ?x111 |v17:0|))))
(let ((?x384 (* ?x107 |v15:2|)))
(let ((?x818 (+ (+ (+ (* ?x31 |v12:5|) (* ?x190 |v0:17|)) (* ?x36 |v1:16|)) (* ?x76 |v9:8|))))
(let ((?x527 (* ?x19 |v14:3|)))
(let ((?x805 (+ (+ (+ (* ?x36 |v6:11|) (* ?x251 |v9:8|)) (* ?x19 |v11:6|)) (* ?x10 |v2:15|))))
(let (($x824 (and (<= (+ (+ (+ ?x805 (* ?x190 |v17:0|)) ?x527) (* ?x205 |v17:0|)) ?x36) (<= (+ (+ (+ ?x818 ?x384) (* ?x31 |v14:3|)) ?x137) ?x147))))
(let ((?x258 (* ?x36 |v7:10|)))
(let ((?x794 (+ (+ (+ (+ (+ (+ |v1:16| ?x785) (* ?x398 |v6:11|)) ?x252) ?x790) ?x258) (* ?x27 |v6:11|))))
(let ((?x781 (* ?x161 |v16:1|)))
(let ((?x779 (* ?x61 |v7:10|)))
(let ((?x782 (+ (+ (+ (+ (+ ?x773 (* ?x50 |v0:17|)) ?x776) (* ?x358 |v7:10|)) ?x779) ?x781)))
(let ((?x306 (* ?x305 |v13:4|)))
(let ((?x765 (+ (+ (+ (* ?x85 |v8:9|) (* ?x10 |v13:4|)) (* ?x76 |v2:15|)) (* ?x190 |v1:16|))))
(let ((?x706 (* ?x46 |v0:17|)))
(let ((?x755 (+ (+ (+ (+ (* ?x90 |v10:7|) ?x481) (* ?x358 |v7:10|)) (* ?x161 |v1:16|)) (* ?x231 |v17:0|))))
(let (($x772 (or (<= (+ (+ ?x755 ?x756) ?x706) ?x358) (<= (+ (+ (+ ?x765 ?x766) ?x306) ?x769) ?x111))))
(let ((?x359 (* ?x358 |v14:3|)))
(let ((?x740 (+ (+ (+ (* ?x118 |v17:0|) (* ?x121 |v1:16|)) (* ?x161 |v0:17|)) (* ?x251 |v7:10|))))
(let ((?x409 (* ?x111 |v11:6|)))
(let ((?x731 (+ (+ (+ (+ (* ?x50 |v7:10|) ?x724) (* ?x231 |v6:11|)) (* ?x31 |v17:0|)) (* ?x223 |v7:10|))))
(let (($x746 (and (<= (+ (+ ?x731 (* ?x161 |v6:11|)) ?x409) ?x111) (<= (+ (+ (+ ?x740 ?x328) ?x359) (* ?x81 |v6:11|)) ?x111))))
(let ((?x720 (+ (+ (+ (+ (+ (* ?x10 |v8:9|) ?x224) (* ?x27 |v17:0|)) ?x238) ?x630) |v5:12|)))
(let (($x798 (or (and (<= (+ ?x720 (* ?x251 |v16:1|)) ?x36) $x746) (or $x772 (and (<= (+ ?x782 ?x224) ?x76) (<= ?x794 ?x161))))))
(let (($x875 (or $x798 (or (and $x824 (<= (+ (+ ?x831 (* ?x31 |v11:6|)) ?x834) ?x46)) $x873))))
(let (($x1028 (and $x875 (or (or (<= (+ (+ ?x883 ?x884) ?x101) ?x100) (and $x913 $x937)) $x1026))))
(let (($x1332 (and $x1028 (and (or $x1085 $x1173) (or (or (or $x1196 $x1218) (or $x1238 $x1258)) $x1329)))))
(let ((?x701 (+ (+ (+ (* ?x46 |v11:6|) (* ?x14 |v17:0|)) (* ?x305 |v10:7|)) (* ?x121 |v10:7|))))
(let ((?x116 (* ?x115 |v9:8|)))
(let ((?x548 (* ?x398 |v4:13|)))
(let ((?x540 (* ?x205 |v8:9|)))
(let ((?x691 (+ (+ (+ (+ (* ?x46 |v14:3|) (* ?x133 |v2:15|)) (* ?x305 |v5:12|)) ?x540) ?x690)))
(let (($x709 (or (<= (+ (+ ?x691 ?x548) ?x116) ?x154) (<= (+ (+ (+ ?x701 (* ?x95 |v13:4|)) (* ?x107 |v0:17|)) ?x706) ?x90))))
(let ((?x389 (* ?x19 |v2:15|)))
(let ((?x680 (* ?x31 |v16:1|)))
(let ((?x103 (* ?x57 |v14:3|)))
(let ((?x679 (+ (+ (+ (+ ?x409 (* ?x197 |v9:8|)) (* ?x194 |v0:17|)) (* ?x121 |v11:6|)) ?x103)))
(let ((?x284 (* ?x100 |v15:2|)))
(let ((?x362 (* ?x121 |v1:16|)))
(let ((?x669 (+ (+ (+ (+ (* ?x76 |v14:3|) (* ?x128 |v13:4|)) (* ?x133 |v5:12|)) ?x362) ?x284)))
(let (($x684 (and (<= (+ (+ ?x669 (* ?x31 |v10:7|)) |v14:3|) ?x358) (<= (+ (+ ?x679 ?x680) ?x389) ?x223))))
(let ((?x167 (* ?x154 |v4:13|)))
(let ((?x513 (* ?x69 |v14:3|)))
(let ((?x657 (+ (+ (+ (+ (* ?x39 |v6:11|) (* ?x133 |v6:11|)) (* ?x14 |v6:11|)) ?x513) ?x349)))
(let ((?x401 (* ?x251 |v11:6|)))
(let ((?x450 (* ?x190 |v6:11|)))
(let ((?x648 (+ (+ (+ (+ ?x641 (* ?x121 |v11:6|)) (* ?x19 |v8:9|)) (* ?x398 |v0:17|)) (* ?x194 |v14:3|))))
(let (($x662 (or (<= (+ (+ ?x648 ?x450) ?x401) ?x27) (<= (+ (+ ?x657 ?x167) (* ?x133 |v9:8|)) ?x251))))
(let ((?x636 (+ (+ (+ (+ (+ ?x145 ?x414) ?x630) (* ?x50 |v7:10|)) (* ?x128 |v13:4|)) ?x635)))
(let ((?x624 (+ (+ (+ (+ (* ?x39 |v3:14|) ?x298) (* ?x39 |v12:5|)) (* ?x161 |v13:4|)) (* ?x121 |v7:10|))))
(let (($x640 (or (<= (+ (+ ?x624 (* ?x50 |v13:4|)) ?x145) ?x85) (<= (+ ?x636 (* ?x57 |v15:2|)) ?x81))))
(let ((?x504 (* ?x50 |v11:6|)))
(let ((?x542 (* ?x57 |v16:1|)))
(let ((?x611 (+ (+ (+ (* ?x161 |v13:4|) (* ?x154 |v5:12|)) (* ?x39 |v14:3|)) (* ?x133 |v15:2|))))
(let ((?x599 (+ (+ (+ (+ (* ?x223 |v16:1|) (* ?x358 |v16:1|)) ?x594) (* ?x128 |v13:4|)) (* ?x69 |v10:7|))))
(let ((?x585 (+ (+ (+ (+ (* ?x57 |v9:8|) ?x578) (* ?x85 |v17:0|)) (* ?x95 |v8:9|)) ?x584)))
(let (($x605 (and (<= (+ (+ ?x585 (* ?x14 |v0:17|)) ?x588) ?x493) (<= (+ (+ ?x599 (* ?x223 |v3:14|)) (* ?x27 |v14:3|)) ?x69))))
(let ((?x200 (* ?x161 |v9:8|)))
(let ((?x202 (* ?x95 |v6:11|)))
(let ((?x571 (+ (+ (+ (+ (* ?x61 |v8:9|) ?x565) (* ?x36 |v4:13|)) (* ?x36 |v12:5|)) ?x202)))
(let ((?x561 (* ?x27 |v0:17|)))
(let ((?x139 (* ?x39 |v4:13|)))
(let ((?x560 (+ (+ (+ (+ (+ (* ?x107 |v14:3|) ?x553) ?x555) ?x328) (* ?x69 |v8:9|)) ?x139)))
(let ((?x549 (+ (+ (+ (+ (+ (+ ?x538 (* ?x194 |v13:4|)) ?x540) ?x542) ?x544) ?x546) ?x548)))
(let ((?x532 (+ (+ (+ (+ (* ?x205 |v16:1|) (* ?x85 |v15:2|)) ?x527) (* ?x57 |v2:15|)) (* ?x31 |v13:4|))))
(let (($x551 (and (<= (+ (+ ?x532 (* ?x231 |v12:5|)) (* ?x121 |v3:14|)) ?x194) (<= ?x549 ?x81))))
(let (($x576 (or $x551 (and (<= (+ ?x560 ?x561) ?x161) (<= (+ (+ ?x571 ?x407) ?x200) ?x194)))))
(let (($x712 (or (or $x576 (or $x605 (<= (+ (+ (+ ?x611 ?x542) ?x504) ?x409) ?x31))) (or (or $x640 $x662) (or $x684 $x709)))))
(let ((?x169 (* ?x10 |v15:2|)))
(let ((?x517 (+ (+ (+ (+ (+ ?x112 (* ?x31 |v8:9|)) (* ?x111 |v4:13|)) ?x513) ?x169) (* ?x19 |v16:1|))))
(let ((?x502 (* ?x50 |v6:11|)))
(let ((?x51 (* ?x50 |v10:7|)))
(let ((?x503 (+ (+ (+ (+ (* ?x231 |v8:9|) (* ?x31 |v2:15|)) (* ?x231 |v3:14|)) ?x51) ?x502)))
(let (($x520 (or (<= (+ (+ ?x503 ?x504) (* ?x223 |v5:12|)) ?x147) (<= (+ ?x517 ?x139) ?x76))))
(let ((?x489 (+ (+ (+ (+ ?x481 (* ?x10 |v17:0|)) (* ?x128 |v9:8|)) (* ?x305 |v5:12|)) ?x488)))
(let ((?x477 (* ?x194 |v13:4|)))
(let ((?x472 (+ (+ (+ (* ?x161 |v13:4|) (* ?x194 |v9:8|)) (* ?x50 |v1:16|)) (* ?x10 |v3:14|))))
(let (($x495 (or (<= (+ (+ (+ ?x472 ?x473) (* ?x27 |v1:16|)) ?x477) ?x39) (<= (+ (+ ?x489 ?x185) ?x491) ?x493))))
(let ((?x456 (* ?x305 |v4:13|)))
(let ((?x460 (* ?x121 |v4:13|)))
(let ((?x459 (+ (+ (+ (+ ?x264 (* ?x14 |v9:8|)) (* ?x154 |v15:2|)) ?x456) (* ?x190 |v16:1|))))
(let ((?x447 (+ (+ (+ (+ (* ?x115 |v4:13|) (* ?x36 |v13:4|)) (* ?x36 |v15:2|)) ?x444) ?x446)))
(let (($x464 (or (<= (+ (+ ?x447 (* ?x115 |v7:10|)) ?x450) ?x223) (<= (+ (+ ?x459 ?x460) ?x456) ?x223))))
(let ((?x199 (* ?x128 |v16:1|)))
(let ((?x433 (+ (+ (+ (+ (* ?x425 |v5:12|) ?x181) (* ?x10 |v10:7|)) (* ?x261 |v9:8|)) ?x432)))
(let ((?x421 (+ (+ (+ (+ (+ (* ?x50 |v4:13|) (* ?x190 |v12:5|)) ?x414) ?x416) ?x418) (* ?x251 |v15:2|))))
(let (($x438 (or (<= (+ ?x421 ?x297) ?x69) (<= (+ (+ ?x433 ?x199) (* ?x100 |v3:14|)) ?x147))))
(let ((?x406 (+ (+ (+ (+ (* ?x154 |v14:3|) (* ?x398 |v2:15|)) ?x401) (* ?x190 |v12:5|)) (* ?x111 |v13:4|))))
(let ((?x388 (+ (+ (+ (+ (* ?x231 |v9:8|) (* ?x107 |v16:1|)) ?x384) (* ?x223 |v15:2|)) ?x82)))
(let ((?x376 (* ?x107 |v12:5|)))
(let ((?x375 (+ (+ (+ (+ ?x368 (* ?x107 |v3:14|)) (* ?x76 |v1:16|)) (* ?x57 |v12:5|)) ?x297)))
(let (($x394 (or (<= (+ (+ ?x375 ?x376) (* ?x36 |v10:7|)) ?x57) (<= (+ (+ ?x388 ?x389) (* ?x133 |v7:10|)) ?x147))))
(let ((?x273 (* ?x61 |v12:5|)))
(let ((?x363 (+ (+ (+ (+ (+ (* ?x261 |v14:3|) (* ?x76 |v5:12|)) ?x202) ?x359) ?x273) ?x362)))
(let ((?x351 (+ (+ (+ (+ (+ ?x342 ?x343) (* ?x81 |v13:4|)) (* ?x261 |v14:3|)) ?x349) ?x300)))
(let (($x395 (or (or (<= (+ ?x351 ?x224) ?x194) (<= (+ ?x363 (* ?x261 |v17:0|)) ?x95)) $x394)))
(let (($x523 (or (or $x395 (<= (+ (+ ?x406 ?x407) ?x409) ?x50)) (and (or $x438 $x464) (and $x495 $x520)))))
(let ((?x337 (* ?x85 |v8:9|)))
(let ((?x334 (+ (+ (+ (+ (* ?x46 |v5:12|) ?x328) (* ?x10 |v7:10|)) (* ?x36 |v17:0|)) (* ?x57 |v10:7|))))
(let ((?x318 (+ (+ (+ (+ (* ?x57 |v4:13|) ?x312) (* ?x107 |v5:12|)) (* ?x19 |v10:7|)) ?x317)))
(let ((?x309 (+ (+ (+ (+ (+ (+ ?x297 ?x298) ?x300) (* ?x107 |v6:11|)) |v12:5|) ?x306) (* ?x57 |v7:10|))))
(let (($x324 (or (<= ?x309 ?x305) (<= (+ (+ ?x318 (* ?x133 |v12:5|)) (* ?x147 |v16:1|)) ?x81))))
(let ((?x292 (* ?x19 |v8:9|)))
(let ((?x288 (* ?x251 |v0:17|)))
(let ((?x289 (+ (+ (+ (+ (* ?x205 |v1:16|) (* ?x81 |v12:5|)) ?x284) (* ?x76 |v15:2|)) ?x288)))
(let ((?x276 (+ (+ (+ (+ (* ?x81 |v1:16|) (* ?x85 |v13:4|)) (* ?x118 |v9:8|)) ?x273) (* ?x128 |v12:5|))))
(let (($x295 (and (<= (+ (+ ?x276 ?x277) (* ?x36 |v0:17|)) ?x27) (<= (+ (+ ?x289 (* ?x133 |v8:9|)) ?x292) ?x223))))
(let ((?x265 (+ (+ (+ (+ (+ (+ ?x252 ?x253) ?x255) ?x116) ?x258) (* ?x261 |v11:6|)) ?x264)))
(let ((?x244 (* ?x161 |v0:17|)))
(let ((?x243 (+ (+ (+ (+ ?x169 (* ?x194 |v3:14|)) ?x238) (* ?x50 |v4:13|)) (* ?x46 |v6:11|))))
(let ((?x228 (* ?x205 |v1:16|)))
(let ((?x229 (+ (+ (+ (+ (* ?x10 |v7:10|) (* ?x154 |v9:8|)) ?x224) (* ?x31 |v4:13|)) ?x228)))
(let (($x249 (or (<= (+ (+ ?x229 ?x232) ?x185) ?x27) (<= (+ (+ ?x243 ?x244) (* ?x81 |v17:0|)) ?x118))))
(let (($x340 (and (and (and $x249 (<= ?x265 ?x69)) (or $x295 $x324)) (<= (+ (+ ?x334 ?x335) ?x337) ?x154))))
(let ((?x210 (* ?x57 |v4:13|)))
(let ((?x211 (+ (+ (+ (+ (+ ?x199 ?x200) ?x202) (* ?x205 |v6:11|)) (* ?x197 |v12:5|)) ?x210)))
(let ((?x188 (+ (+ (+ (+ ?x181 (* ?x14 |v5:12|)) (* ?x76 |v12:5|)) ?x185) (* ?x76 |v4:13|))))
(let (($x215 (or (<= (+ (+ ?x188 ?x191) (* ?x194 |v8:9|)) ?x197) (<= (+ ?x211 (* ?x14 |v4:13|)) ?x57))))
(let ((?x174 (+ (+ (+ (+ (+ (* ?x10 |v1:16|) ?x165) ?x167) ?x169) (* ?x36 |v8:9|)) ?x173)))
(let ((?x159 (* ?x39 |v5:12|)))
(let ((?x156 (+ (+ (+ (+ ?x145 (* ?x147 |v9:8|)) |v9:8|) (* ?x118 |v6:11|)) (* ?x154 |v1:16|))))
(let (($x178 (and (<= (+ (+ ?x156 (* ?x69 |v9:8|)) ?x159) ?x161) (<= (+ ?x174 ?x175) ?x90))))
(let ((?x134 (* ?x133 |v6:11|)))
(let ((?x130 (+ (+ (+ (* ?x121 |v8:9|) (* ?x36 |v11:6|)) (* ?x107 |v10:7|)) (* ?x128 |v10:7|))))
(let ((?x109 (+ (+ (+ (+ (* ?x95 |v11:6|) (* ?x19 |v0:17|)) ?x101) ?x103) (* ?x107 |v4:13|))))
(let (($x142 (or (<= (+ (+ ?x109 ?x112) ?x116) ?x118) (<= (+ (+ (+ ?x130 ?x134) ?x137) ?x139) ?x69))))
(let ((?x77 (* ?x76 |v0:17|)))
(let ((?x83 (+ (+ (+ (+ (* ?x27 |v17:0|) (* ?x69 |v5:12|)) (* ?x27 |v10:7|)) ?x77) ?x82)))
(let ((?x59 (+ (+ (+ (+ (+ |v13:4| (* ?x14 |v5:12|)) ?x47) ?x51) ?x54) (* ?x57 |v13:4|))))
(let (($x92 (or (<= (+ ?x59 (* ?x61 |v9:8|)) ?x31) (<= (+ (+ ?x83 (* ?x85 |v10:7|)) (* ?x19 |v1:16|)) ?x90))))
(let ((?x29 (+ (+ (+ (+ (* ?x10 |v14:3|) (* ?x14 |v9:8|)) (* ?x19 |v10:7|)) ?x23) (* ?x27 |v13:4|))))
(let (($x218 (or (<= (+ (+ ?x29 (* ?x31 |v15:2|)) (* ?x36 |v16:1|)) ?x39) (and (and $x92 $x142) (or $x178 $x215)))))
(or (or (and $x218 $x340) (and $x523 $x712)) $x1332))))))))))))))))))))))))))))))))))))))))))))))))))))))))))))))))))))))))))))))))))))))))))))))))))))))))))))))))))))))))))))))))))))))))))))))))))))))))))))))))))))))))))))))))))))))))))))))))))))))))))))))))))))))))))))))))))))))))))))))))))))))))))))))))))))))))))))))))))))))))))))))))))))))))))))))))))))))))))))))))))))))))))
)
)
)
)
)
)
)
)
)
)
)
)
)
)
)
)
)
)
(check-sat)
(exit)

